<number of tasks>
50

<cycle time>
1000

<order strength>
0.597


<task times>
1 415
2 362
3 471
4 483
5 417
6 366
7 491
8 608
9 484
10 650
11 502
12 670
13 502
14 290
15 521
16 477
17 651
18 715
19 479
20 309
21 453
22 512
23 462
24 718
25 258
26 660
27 283
28 649
29 340
30 498
31 641
32 236
33 218
34 669
35 530
36 428
37 397
38 631
39 452
40 554
41 433
42 431
43 390
44 607
45 302
46 505
47 502
48 527
49 446
50 428

<precedence relations>
1,8
2,8
3,8
4,8
5,9
5,10
6,11
6,22
6,26
7,11
7,12
8,13
8,14
8,15
8,16
8,17
9,41
10,18
10,23
12,19
12,21
12,32
13,24
14,21
14,22
15,23
17,21
18,40
19,20
20,24
21,24
22,24
23,25
23,26
23,27
24,28
24,29
24,30
24,31
25,39
26,32
27,32
28,34
29,33
29,34
30,33
30,34
31,34
31,35
32,33
33,35
34,41
34,43
35,36
35,37
35,38
35,39
35,40
36,41
37,41
38,41
39,42
39,45
40,43
40,44
41,46
41,47
41,48
41,49
41,50

<end>
